6661
9350
6314
695
6019
905
9973
1727
7620
639
6226
6532
6162
6912
947
8001
6916
3912
8031
4968
2810
3516
998
3451
3620
5547
6025
5158
5691
5498
9987
3013
3741
8663
2494
3360
449
2317
6051
9133
9241
10099
2544
3853
2442
771
6136
9370
1289
3471
